
Gurobi 10.0.1 (win64) logging started Sun Oct  8 10:19:19 2023

Set parameter LogFile to value "./results//log/FMS_12_deadline_heurTrue.log"
Gurobi Optimizer version 10.0.1 build v10.0.1rc0 (win64)

CPU model: AMD Ryzen 7 3700X 8-Core Processor, instruction set [SSE2|AVX|AVX2]
Thread count: 8 physical cores, 16 logical processors, using up to 16 threads

Optimize a model with 360 rows, 317 columns and 1380 nonzeros
Model fingerprint: 0xb108b347
Model has 1 quadratic constraint
Variable types: 0 continuous, 317 integer (277 binary)
Coefficient statistics:
  Matrix range     [1e+00, 1e+07]
  QMatrix range    [1e+00, 1e+00]
  QLMatrix range   [1e+00, 4e+02]
  Objective range  [1e+00, 1e+00]
  Bounds range     [1e+00, 1e+00]
  RHS range        [1e+00, 3e+07]

Warning: Completing partial solution with 287 unfixed non-continuous variables out of 317
User MIP start did not produce a new incumbent solution
User MIP start violates constraint initial_start_time_job0_stage0_machine2_constraint by 420.000000000

Presolve removed 58 rows and 158 columns
Presolve time: 0.01s
Presolved: 316 rows, 172 columns, 1372 nonzeros
Variable types: 0 continuous, 172 integer (119 binary)

Root relaxation: objective 0.000000e+00, 50 iterations, 0.00 seconds (0.00 work units)
Another try with MIP start

    Nodes    |    Current Node    |     Objective Bounds      |     Work
 Expl Unexpl |  Obj  Depth IntInf | Incumbent    BestBd   Gap | It/Node Time

H    0     0                    5071.0000000    0.00000   100%     -    0s
     0     0    0.00000    0   14 5071.00000    0.00000   100%     -    0s
H    0     0                    4874.0000000    0.00000   100%     -    0s
H    0     0                    4873.0000000    0.00000   100%     -    0s
     0     0    0.00000    0   31 4873.00000    0.00000   100%     -    0s
     0     0    0.00000    0   30 4873.00000    0.00000   100%     -    0s
H    0     0                    4872.0000000    0.00000   100%     -    0s
H    0     0                    4333.0000000    0.00000   100%     -    0s
     0     0    0.00000    0   20 4333.00000    0.00000   100%     -    0s
H    0     0                    3827.0000000    0.00000   100%     -    0s
     0     0    0.00000    0   39 3827.00000    0.00000   100%     -    0s
     0     0  385.96991    0   29 3827.00000  385.96991  89.9%     -    0s
H    0     0                    3654.0000000  385.96991  89.4%     -    0s
     0     0 1170.91148    0   26 3654.00000 1170.91148  68.0%     -    0s
     0     0 1173.40638    0   29 3654.00000 1173.40638  67.9%     -    0s
     0     0 1288.75362    0   26 3654.00000 1288.75362  64.7%     -    0s
     0     0 1604.59901    0   26 3654.00000 1604.59901  56.1%     -    0s
     0     0 1604.59901    0   26 3654.00000 1604.59901  56.1%     -    0s
     0     0 1604.59901    0   26 3654.00000 1604.59901  56.1%     -    0s
     0     0 1604.59901    0   26 3654.00000 1604.59901  56.1%     -    0s
     0     0 1604.59901    0   26 3654.00000 1604.59901  56.1%     -    0s
     0     0 1605.00000    0   29 3654.00000 1605.00000  56.1%     -    0s
     0     0 1605.34893    0   29 3654.00000 1605.34893  56.1%     -    0s
     0     0 1605.47642    0   31 3654.00000 1605.47642  56.1%     -    0s
     0     0 1605.47642    0   30 3654.00000 1605.47642  56.1%     -    0s
H    0     0                    3645.0000000 1606.00000  55.9%     -    0s
H    0     2                    3638.0000000 1606.00000  55.9%     -    0s
     0     2 1606.00000    0   28 3638.00000 1606.00000  55.9%     -    0s
H   27    24                    3558.0000000 1628.00000  54.2%   6.0    0s
H   37    30                    3557.0000000 1628.00000  54.2%   5.1    0s
H   65    51                    3556.0000000 1628.00000  54.2%   4.8    0s
H   80    59                    3515.0000000 1628.00000  53.7%   4.7    0s
H  120    92                    3488.0000000 1628.00000  53.3%   4.4    0s
H  123    92                    3472.0000000 1628.00000  53.1%   4.4    0s
H  174   127                    3417.0000000 1628.00000  52.4%   4.6    0s
H 2648   838                    3341.0000000 1676.00000  49.8%   3.8    0s
H 5131  1414                    3339.0000000 1723.00000  48.4%   3.9    0s
H 5133  1344                    3233.0000000 1723.00000  46.7%   3.9    0s
H 5137  1279                    3190.0000000 1723.00000  46.0%   3.9    0s
H 5144  1220                    3078.0000000 1723.00000  44.0%   3.9    1s
H 5145  1158                    3017.0000000 1723.00000  42.9%   3.9    1s
H 5160  1111                    3016.0000000 1754.80156  41.8%   4.7    1s
H 5162  1056                    2985.0000000 1754.80156  41.2%   4.7    1s
H 5164  1004                    2983.0000000 1754.80156  41.2%   4.6    1s
H 5166   956                    2982.0000000 1754.80156  41.2%   4.6    1s
H 5172   911                    2981.0000000 1754.80156  41.1%   4.6    1s
H 5172   866                    2979.0000000 1754.80156  41.1%   4.6    1s
H 5175   824                    2978.0000000 1754.80156  41.1%   4.6    1s
H 5178   784                    2977.0000000 1754.80156  41.1%   4.6    2s
H 5178   745                    2975.0000000 1754.80156  41.0%   4.6    2s
H 5180   708                    2974.0000000 1754.80156  41.0%   4.6    2s
H 5182   673                    2973.0000000 1754.80156  41.0%   4.6    2s
H 5182   639                    2971.0000000 1754.80156  40.9%   4.6    2s
H 5186   609                    2970.0000000 1754.80156  40.9%   4.6    2s
H 5187   579                    2932.0000000 1754.80156  40.2%   4.6    2s
*13200  1153              49    2908.0000000 2247.00000  22.7%  10.2    4s
 14113  1156 infeasible   50      2908.00000 2290.00000  21.3%  10.4    5s

Cutting planes:
  Learned: 62
  Gomory: 75
  Cover: 13
  Implied bound: 4
  Clique: 1
  MIR: 222
  StrongCG: 64
  Flow cover: 461
  Inf proof: 8
  Zero half: 9
  RLT: 1
  Relax-and-lift: 10

Explored 20724 nodes (243215 simplex iterations) in 6.68 seconds (2.29 work units)
Thread count was 16 (of 16 available processors)

Solution count 10: 2908 2932 2970 ... 2979

Optimal solution found (tolerance 1.00e-04)
Best objective 2.908000000000e+03, best bound 2.908000000000e+03, gap 0.0000%
Warning: constraint name "precedence between 0,0 to 0,1 if x_[0,0,0,1,3]=0, i.e. 0,1 before 0,0" has a space
Warning: constraint name "precedence between 0,0 to 0,1 if x_[0,0,0,1,3]=0, i.e. 0,1 before 0,0" has a space
Warning: default constraint names used to write mps file
